Ni  C  H
 1.0000000000000000
     7.40340799902315 0.00000000000000 0.00000000000000
     3.70170399951158 6.41153940173497 0.00000000000000
     0.00000000000000 0.00000000000000 25.24485731841538
  36   1  3
Selective dynamics
Cartesian
 0.          0.         -6.04485732   F   F   F 
 2.46780267  0.         -6.04485732   F   F   F 
 4.93560533  0.         -6.04485732   F   F   F 
 1.23390133  2.1371798  -6.04485732   F   F   F 
 3.701704    2.1371798  -6.04485732   F   F   F 
 6.16950667  2.1371798  -6.04485732   F   F   F 
 2.46780267  4.2743596  -6.04485732   F   F   F 
 4.93560533  4.2743596  -6.04485732   F   F   F 
 7.403408    4.2743596  -6.04485732   F   F   F 
 1.23390133  0.71239327 -4.02990488   F   F   F 
 3.701704    0.71239327 -4.02990488   F   F   F 
 6.16950667  0.71239327 -4.02990488   F   F   F 
 2.46780267  2.84957307 -4.02990488   F   F   F 
 4.93560533  2.84957307 -4.02990488   F   F   F 
 7.403408    2.84957307 -4.02990488   F   F   F 
 3.701704    4.98675287 -4.02990488   F   F   F 
 6.16950667  4.98675287 -4.02990488   F   F   F 
 8.63730933  4.98675287 -4.02990488   F   F   F 
-0.          1.42478653 -2.01495244   F   F   F 
 2.46780267  1.42478653 -2.01495244   F   F   F 
 4.93560533  1.42478653 -2.01495244   F   F   F 
 1.23390133  3.56196633 -2.01495244   F   F   F 
 3.701704    3.56196633 -2.01495244   F   F   F 
 6.16950667  3.56196633 -2.01495244   F   F   F 
 2.46780267  5.69914613 -2.01495244   F   F   F 
 4.93560533  5.69914613 -2.01495244   F   F   F 
 7.403408    5.69914613 -2.01495244   F   F   F 
0. 0. 0.   F   F   F 
2.46780267 0.         0.           F   F   F 
4.93560533 0.         0.           F   F   F 
1.23390133 2.1371798  0.           F   F   F 
3.701704  2.1371798 0.          F   F   F 
6.16950667 2.1371798  0.           F   F   F 
2.46780267 4.2743596  0.           F   F   F 
4.93560533 4.2743596  0.           F   F   F 
7.403408  4.2743596 0.          F   F   F 
1.29174027 0.04865975 1.33198654   F   F   F 
1.64724653 1.10537401 1.25090493   F   F   F 
 1.84823492 -0.40759587  2.18740937   F   F   F 
0.21900901 0.09851205 1.64273442   F   F   F 
 
